proyfinal/src/viki/013/experimentInOfficeAgust.take6.output/f4ae735b-a379-4fb6-9d99-2820fe1df3b5.als.dat
{'cnf.clauses': '118081',
 'cnf.totvars': '69608',
 'conflict literals': '7',
 'conflicts': '6',
 'decisions': '654',
 'memused.mb': '15.82',
 'outcome': 'UNSAT',
 'propagations': '21227',
 'restarts': '1',
 'solver.msecs': 29,
 'task.msecs': 78}
