proyfinal/src/viki/013/experimentInOfficeAgust.take6.output/f4ae735b-a379-4fb6-9d99-2820fe1df3b5.als.out
Reading from standard input... Use '--help' for help.
============================[ Problem Statistics ]=============================
|                                                                             |
|  Number of variables:         69608                                         |
|  Number of clauses:          118081                                         |
|  Parse time:                   0.02 s                                       |
|                                                                             |
============================[ Search Statistics ]==============================
| Conflicts |          ORIGINAL         |          LEARNT          | Progress |
|           |    Vars  Clauses Literals |    Limit  Clauses Lit/Cl |          |
===============================================================================
===============================================================================
restarts              : 1
conflicts             : 6              (206 /sec)
decisions             : 654            (0.00 % random) (22474 /sec)
propagations          : 21227          (729450 /sec)
conflict literals     : 7              (0.00 % deleted)
Memory used           : 15.82 MB
CPU time              : 0.0291 s

UNSATISFIABLE
